30
4 0 5
6 2 9
7 2 20
10 1 8
10 2 17
10 6 1
12 1 10
12 3 8
12 4 12
12 8 15
13 8 8
14 3 3
15 3 20
15 8 17
15 9 7
17 10 13
19 3 1
19 7 8
20 1 9
20 4 6
21 3 10
21 14 9
22 0 9
22 2 16
22 10 13
23 9 15
24 12 3
24 23 7
25 19 7
25 22 6
25 23 10
26 21 8
27 9 12
27 11 6
27 13 7
27 15 2
27 19 6
28 3 6
28 4 1
28 19 15
28 24 7
28 27 5
29 2 6
29 10 14
29 17 10
